K=2;
N=8;
P=[37 78];
R=[16 49];
A=[5 4];
C=[13 44];
M=[
[ 0 21 9 16 13 2 19 15 ]
[ 21 0 38 18 10 41 41 50 ]
[ 9 38 0 46 8 46 24 50 ]
[ 16 18 46 0 18 36 45 45 ]
[ 13 10 8 18 0 50 50 50 ]
[ 2 41 46 36 50 0 46 50 ]
[ 19 41 24 45 50 46 0 50 ]
[ 15 50 50 45 50 50 50 0 ]
];
